NAME: random-92-9570
TYPE: TSP
COMMENT: size=92 seed=9570
DIMENSION: 186
EDGE_WEIGHT_TYPE: EUC_2D
NODE_COORD_SECTION
+0 990 4
-0 990 4
+1 694 575
-1 930 548
+2 610 715
-2 310 460
+3 496 430
-3 973 67
+4 356 299
-4 957 407
+5 945 246
-5 638 602
+6 441 636
-6 70 534
+7 413 580
-7 273 602
+8 223 452
-8 232 583
+9 92 944
-9 882 58
+10 682 299
-10 5 297
+11 405 985
-11 492 368
+12 557 618
-12 825 773
+13 635 470
-13 374 629
+14 895 990
-14 553 97
+15 461 904
-15 750 389
+16 596 841
-16 981 964
+17 670 675
-17 83 798
+18 753 395
-18 407 712
+19 675 607
-19 561 940
+20 16 827
-20 833 134
+21 767 622
-21 735 806
+22 162 419
-22 703 753
+23 577 676
-23 208 508
+24 999 799
-24 341 255
+25 343 671
-25 514 178
+26 353 970
-26 577 838
+27 822 90
-27 256 503
+28 21 722
-28 537 334
+29 324 138
-29 927 384
+30 310 821
-30 464 852
+31 871 336
-31 585 235
+32 463 754
-32 204 770
+33 354 200
-33 466 600
+34 196 923
-34 977 46
+35 691 149
-35 326 691
+36 850 883
-36 821 348
+37 386 695
-37 360 401
+38 868 413
-38 195 876
+39 566 96
-39 847 625
+40 73 747
-40 335 485
+41 323 617
-41 993 807
+42 271 258
-42 835 255
+43 256 516
-43 120 388
+44 113 706
-44 492 811
+45 882 474
-45 613 578
+46 98 277
-46 279 844
+47 839 414
-47 757 633
+48 935 422
-48 499 699
+49 652 685
-49 42 516
+50 409 310
-50 698 669
+51 978 654
-51 349 629
+52 447 876
-52 417 754
+53 733 699
-53 594 614
+54 246 523
-54 364 496
+55 37 232
-55 999 239
+56 121 917
-56 497 701
+57 797 86
-57 998 701
+58 945 76
-58 427 934
+59 876 154
-59 423 855
+60 155 774
-60 672 227
+61 292 612
-61 353 117
+62 579 664
-62 845 484
+63 760 170
-63 132 871
+64 153 406
-64 962 392
+65 582 40
-65 242 646
+66 313 935
-66 18 379
+67 665 163
-67 226 254
+68 690 248
-68 752 744
+69 562 133
-69 326 600
+70 488 964
-70 535 667
+71 535 102
-71 25 980
+72 563 706
-72 361 207
+73 472 43
-73 745 106
+74 557 662
-74 830 885
+75 249 45
-75 771 153
+76 620 652
-76 616 100
+77 161 279
-77 191 812
+78 390 651
-78 822 251
+79 394 361
-79 792 876
+80 876 874
-80 226 342
+81 535 814
-81 279 974
+82 844 579
-82 111 289
+83 523 708
-83 622 983
+84 996 244
-84 464 580
+85 684 363
-85 404 336
+86 631 133
-86 24 761
+87 131 808
-87 407 117
+88 295 835
-88 100 227
+89 926 820
-89 482 609
+90 965 619
-90 962 519
+91 608 589
-91 293 229
+92 583 538
-92 883 143
PRECEDENCE_SECTION
+0 -0
+1 -1
+2 -2
+3 -3
+4 -4
+5 -5
+6 -6
+7 -7
+8 -8
+9 -9
+10 -10
+11 -11
+12 -12
+13 -13
+14 -14
+15 -15
+16 -16
+17 -17
+18 -18
+19 -19
+20 -20
+21 -21
+22 -22
+23 -23
+24 -24
+25 -25
+26 -26
+27 -27
+28 -28
+29 -29
+30 -30
+31 -31
+32 -32
+33 -33
+34 -34
+35 -35
+36 -36
+37 -37
+38 -38
+39 -39
+40 -40
+41 -41
+42 -42
+43 -43
+44 -44
+45 -45
+46 -46
+47 -47
+48 -48
+49 -49
+50 -50
+51 -51
+52 -52
+53 -53
+54 -54
+55 -55
+56 -56
+57 -57
+58 -58
+59 -59
+60 -60
+61 -61
+62 -62
+63 -63
+64 -64
+65 -65
+66 -66
+67 -67
+68 -68
+69 -69
+70 -70
+71 -71
+72 -72
+73 -73
+74 -74
+75 -75
+76 -76
+77 -77
+78 -78
+79 -79
+80 -80
+81 -81
+82 -82
+83 -83
+84 -84
+85 -85
+86 -86
+87 -87
+88 -88
+89 -89
+90 -90
+91 -91
+92 -92
EOF
